75
69 5
91 12
1 94
56 39
31 82
88 44
3 85
40 29
36 43
46 12
92 50
88 63
62 93
25 89
52 11
38 62
6 23
6 29
1 23
48 42
58 89
86 15
45 4
52 56
24 73
98 78
70 39
82 32
65 36
19 7
5 24
95 71
12 69
82 52
1 13
16 30
17 83
53 81
26 48
48 4
50 81
81 15
42 75
26 23
4 15
8 45
47 73
91 41
69 75
39 41
58 80
80 14
62 18
5 37
88 26
58 3
44 63
89 0
98 60
7 27
56 66
50 31
73 69
7 75
79 41
34 91
32 31
65 60
42 23
23 36
40 90
19 51
89 21
10 54
35 6